Minimize
 obj:
0.5 y_1_14_1_3 + 0.5 y_1_14_1_4 + 0.5 y_1_14_2_3 + 0.375 y_1_18_4_2 + 0.375 y_2_39_1_3 + 0.125 y_2_39_1_4 + 0.479167 y_2_40_1_2 + 0.479167 y_2_40_1_3 + 0.375 y_2_41_1_3 + 0.354167 y_2_43_1_2
 + 0.541667 y_2_32_2_1 + 0.125 y_2_39_2_3 + 0.541667 y_2_32_3_4 + 0.354167 y_2_35_3_1 + 0.145833 y_2_35_3_2 + 0.104167 y_2_37_3_1 + 0.395833 y_2_37_3_2 + 0.145833 y_2_35_4_1 + 0.395833 y_2_37_4_1 + 0.479167 y_2_40_4_3
 + 0.354167 y_2_43_4_2 + 0.354167 y_2_43_4_3 + 0.291667 y_3_4_1_2 + 0.333333 y_3_33_1_2 + 0.583333 y_3_15_2_1 + 0.583333 y_3_15_3_4 + 0.291667 y_3_4_4_3 + 0.333333 y_3_33_4_2 + 0.333333 y_3_33_4_3 + 0.3125 y_4_33_1_1
 + 0.1875 y_4_33_2_1 + 0.3125 y_4_33_2_2 + 0.1875 y_4_33_3_1 + 0.3125 y_4_33_3_2 + 0.3125 y_4_33_3_3 + 0.1875 y_4_33_3_4 + 0.3125 y_4_33_4_1 + 0.3125 y_4_33_4_4 + 0.25 y_5_9_1_2 + 0.25 y_5_9_4_2
 + 0.25 y_5_9_4_3 + 0.291667 y_7_8_1_1 + 0.708333 y_7_8_1_2 + 0.291667 y_7_8_2_2 + 0.291667 y_7_8_3_3 + 0.708333 y_7_8_4_3 + 0.291667 y_7_8_4_4 + 0.958333 y_9_20_1_2 + 0.958333 y_9_20_4_3 + 0.708333 y_10_11_1_1
 + 0.0416667 y_10_19_1_1 + 0.458333 y_10_19_1_2 + 0.458333 y_10_19_1_3 + 0.0416667 y_10_19_1_4 + 0.1875 y_10_21_1_3 + 0.875 y_10_57_1_4 + 0.291667 y_10_11_2_1 + 0.708333 y_10_11_2_2 + 0.0416667 y_10_19_2_2 + 0.0416667 y_10_19_2_3
 + 0.875 y_10_57_2_3 + 0.125 y_10_57_2_4 + 0.708333 y_10_11_3_3 + 0.291667 y_10_11_3_4 + 0.0416667 y_10_19_3_3 + 0.708333 y_10_11_4_4 + 0.458333 y_10_19_4_3 + 0.0416667 y_10_19_4_4 + 0.395833 y_11_19_1_2 + 0.395833 y_11_19_1_3
 + 0.0416667 y_11_21_1_3 + 0.166667 y_11_57_1_3 + 0.833333 y_11_57_1_4 + 0.833333 y_11_57_2_3 + 0.395833 y_11_19_4_3 + 0.333333 y_12_13_1_4 + 0.333333 y_12_13_2_3 + 0.166667 y_12_13_2_4 + 0.458333 y_12_57_3_2 + 0.208333 y_12_19_4_2
 + 0.458333 y_12_57_4_1 + 0.541667 y_12_57_4_2 + 0.354167 y_14_24_1_3 + 0.541667 y_16_17_1_1 + 0.458333 y_16_17_1_2 + 0.416667 y_16_24_1_2 + 0.333333 y_16_25_1_2 + 0.541667 y_16_17_2_2 + 0.541667 y_16_17_3_3 + 0.458333 y_16_17_4_3
 + 0.541667 y_16_17_4_4 + 0.416667 y_16_24_4_2 + 0.416667 y_16_24_4_3 + 0.333333 y_16_25_4_3 + 0.145833 y_17_24_1_1 + 0.354167 y_17_24_1_2 + 0.791667 y_17_25_1_2 + 0.0833333 y_17_33_1_3 + 0.145833 y_17_24_2_2 + 0.145833 y_17_24_3_2
 + 0.145833 y_17_24_3_3 + 0.145833 y_17_24_4_1 + 0.354167 y_17_24_4_2 + 0.354167 y_17_24_4_3 + 0.145833 y_17_24_4_4 + 0.791667 y_17_25_4_3 + 0.0208333 y_18_23_1_1 + 0.479167 y_18_23_1_2 + 0.0208333 y_18_23_2_2 + 0.0208333 y_18_23_3_2
 + 0.0208333 y_18_23_3_3 + 0.958333 y_18_22_4_2 + 0.0208333 y_18_23_4_1 + 0.479167 y_18_23_4_2 + 0.479167 y_18_23_4_3 + 0.0208333 y_18_23_4_4 + 0.708333 y_19_21_1_3 + 0.291667 y_19_21_1_4 + 0.291667 y_19_21_2_3 + 0.479167 y_19_57_2_1
 + 0.479167 y_19_57_2_4 + 0.479167 y_19_57_3_4 + 0.541667 y_19_28_4_2 + 0.0833333 y_19_30_4_2 + 0.416667 y_21_34_1_3 + 0.3125 y_21_56_1_2 + 0.3125 y_21_56_1_3 + 0.125 y_21_57_2_1 + 0.125 y_21_57_3_1 + 0.125 y_21_57_3_4
 + 0.3125 y_21_56_4_3 + 0.458333 y_22_23_1_1 + 0.458333 y_22_23_1_4 + 0.416667 y_22_31_1_2 + 0.0416667 y_22_23_2_1 + 0.458333 y_22_23_2_2 + 0.458333 y_22_23_2_3 + 0.0416667 y_22_23_2_4 + 0.458333 y_22_23_3_3 + 0.0416667 y_22_23_3_4
 + 0.583333 y_22_26_3_2 + 0.458333 y_22_23_4_4 + 0.583333 y_22_26_4_1 + 0.416667 y_22_26_4_2 + 0.416667 y_22_31_4_2 + 0.416667 y_22_31_4_3 + 0.25 y_23_26_3_2 + 0.25 y_23_26_4_1 + 0.25 y_23_26_4_2 + 0.75 y_23_31_4_2
 + 0.25 y_24_25_1_1 + 0.25 y_24_25_1_2 + 0.25 y_24_25_1_3 + 0.25 y_24_25_1_4 + 0.625 y_24_32_1_2 + 0.25 y_24_25_2_2 + 0.25 y_24_25_2_3 + 0.25 y_24_25_3_3 + 0.25 y_24_25_4_3 + 0.25 y_24_25_4_4
 + 0.625 y_24_32_4_3 + 0.0625 y_25_32_1_1 + 0.4375 y_25_32_1_2 + 0.3125 y_25_33_1_3 + 0.1875 y_25_33_1_4 + 0.0625 y_25_32_2_2 + 0.1875 y_25_33_2_3 + 0.0625 y_25_32_3_2 + 0.0625 y_25_32_3_3 + 0.0625 y_25_32_4_1
 + 0.4375 y_25_32_4_2 + 0.4375 y_25_32_4_3 + 0.0625 y_25_32_4_4 + 0.125 y_26_31_1_1 + 0.375 y_26_31_1_2 + 0.375 y_26_31_1_3 + 0.125 y_26_31_1_4 + 0.166667 y_26_47_1_2 + 0.125 y_26_31_2_2 + 0.125 y_26_31_2_3
 + 0.125 y_26_31_3_3 + 0.375 y_26_31_4_3 + 0.125 y_26_31_4_4 + 0.416667 y_26_34_4_2 + 0.166667 y_26_47_4_3 + 0.270833 y_27_29_1_3 + 0.229167 y_27_29_1_4 + 0.479167 y_27_53_1_2 + 0.145833 y_27_58_1_1 + 0.354167 y_27_58_1_2
 + 0.229167 y_27_29_2_3 + 0.145833 y_27_58_2_2 + 0.145833 y_27_58_3_2 + 0.145833 y_27_58_3_3 + 0.25 y_27_52_4_2 + 0.479167 y_27_53_4_2 + 0.479167 y_27_53_4_3 + 0.145833 y_27_58_4_1 + 0.354167 y_27_58_4_2 + 0.354167 y_27_58_4_3
 + 0.145833 y_27_58_4_4 + 0.541667 y_28_30_1_1 + 0.458333 y_28_30_1_2 + 0.0416667 y_28_54_1_2 + 0.0416667 y_28_54_1_3 + 0.541667 y_28_30_2_2 + 0.354167 y_28_29_3_2 + 0.541667 y_28_30_3_3 + 0.354167 y_28_29_4_1 + 0.145833 y_28_29_4_2
 + 0.458333 y_28_30_4_3 + 0.541667 y_28_30_4_4 + 0.0416667 y_28_54_4_3 + 0.0833333 y_29_30_1_3 + 0.416667 y_29_30_1_4 + 0.416667 y_29_30_2_3 + 0.0833333 y_29_48_4_2 + 0.416667 y_29_50_4_2 + 0.270833 y_30_54_1_2 + 0.270833 y_30_54_1_3
 + 0.270833 y_30_54_4_3 + 0.25 y_31_46_1_3 + 0.458333 y_31_47_1_2 + 0.0416667 y_31_55_1_3 + 0.0625 y_31_45_4_2 + 0.458333 y_31_47_4_2 + 0.458333 y_31_47_4_3 + 0.125 y_32_35_3_2 + 0.125 y_32_35_4_1 + 0.375 y_32_35_4_2
 + 0.375 y_32_37_4_2 + 0.270833 y_34_45_1_2 + 0.270833 y_34_45_1_3 + 0.333333 y_34_47_1_3 + 0.166667 y_34_47_1_4 + 0.395833 y_34_56_1_1 + 0.166667 y_34_47_2_3 + 0.104167 y_34_56_2_1 + 0.395833 y_34_56_2_2 + 0.104167 y_34_56_3_1
 + 0.395833 y_34_56_3_2 + 0.395833 y_34_56_3_3 + 0.104167 y_34_56_3_4 + 0.270833 y_34_45_4_3 + 0.395833 y_34_56_4_1 + 0.395833 y_34_56_4_4 + 0.5 y_35_37_1_1 + 0.5 y_35_37_1_2 + 0.0625 y_35_38_1_1 + 0.4375 y_35_38_1_2
 + 0.5 y_35_37_2_2 + 0.0625 y_35_38_2_2 + 0.354167 y_35_36_3_2 + 0.5 y_35_37_3_3 + 0.0625 y_35_38_3_2 + 0.0625 y_35_38_3_3 + 0.354167 y_35_36_4_1 + 0.145833 y_35_36_4_2 + 0.5 y_35_37_4_3 + 0.5 y_35_37_4_4
 + 0.0625 y_35_38_4_1 + 0.4375 y_35_38_4_2 + 0.4375 y_35_38_4_3 + 0.0625 y_35_38_4_4 + 0.104167 y_36_37_1_3 + 0.395833 y_36_37_1_4 + 0.583333 y_36_38_1_3 + 0.416667 y_36_38_1_4 + 0.395833 y_36_37_2_3 + 0.416667 y_36_38_2_3
 + 0.25 y_36_46_3_2 + 0.25 y_36_46_4_1 + 0.75 y_36_46_4_2 + 0.395833 y_36_55_4_2 + 0.3125 y_37_38_1_1 + 0.1875 y_37_38_1_2 + 0.5 y_37_43_1_3 + 0.3125 y_37_38_2_2 + 0.3125 y_37_38_3_2 + 0.3125 y_37_38_3_3
 + 0.3125 y_37_38_4_1 + 0.1875 y_37_38_4_2 + 0.1875 y_37_38_4_3 + 0.3125 y_37_38_4_4 + 0.4375 y_38_43_1_3 + 0.0625 y_39_41_1_1 + 0.4375 y_39_41_1_2 + 0.0625 y_39_41_2_2 + 0.708333 y_39_40_3_2 + 0.0625 y_39_41_3_2
 + 0.0625 y_39_41_3_3 + 0.708333 y_39_40_4_1 + 0.291667 y_39_40_4_2 + 0.0625 y_39_41_4_1 + 0.4375 y_39_41_4_2 + 0.4375 y_39_41_4_3 + 0.0625 y_39_41_4_4 + 0.208333 y_40_41_1_1 + 0.291667 y_40_41_1_2 + 0.291667 y_40_41_1_3
 + 0.208333 y_40_41_1_4 + 0.208333 y_40_41_2_2 + 0.208333 y_40_41_2_3 + 0.208333 y_40_41_3_3 + 0.75 y_40_43_3_2 + 0.291667 y_40_41_4_3 + 0.208333 y_40_41_4_4 + 0.75 y_40_43_4_1 + 0.25 y_40_43_4_2 + 0.166667 y_41_43_3_1
 + 0.333333 y_41_43_3_2 + 0.333333 y_41_43_4_1 + 0.25 y_42_46_2_1 + 0.25 y_42_46_2_4 + 0.958333 y_42_55_2_1 + 0.25 y_42_46_3_4 + 0.0416667 y_42_47_3_1 + 0.958333 y_42_55_3_4 + 0.333333 y_44_54_1_4 + 0.333333 y_44_54_2_3
 + 0.666667 y_44_54_2_4 + 0.208333 y_45_47_1_4 + 0.208333 y_45_47_2_3 + 0.791667 y_45_47_2_4 + 0.333333 y_45_56_3_1 + 0.270833 y_46_55_1_1 + 0.229167 y_46_55_1_2 + 0.270833 y_46_55_2_2 + 0.270833 y_46_55_3_2 + 0.270833 y_46_55_3_3
 + 0.270833 y_46_55_4_1 + 0.229167 y_46_55_4_2 + 0.229167 y_46_55_4_3 + 0.270833 y_46_55_4_4 + 0.4375 y_47_55_1_3 + 0.0625 y_47_55_1_4 + 0.0625 y_47_55_2_3 + 0.666667 y_48_50_1_1 + 0.333333 y_48_50_2_1 + 0.666667 y_48_50_2_2
 + 0.666667 y_48_50_3_3 + 0.333333 y_48_50_3_4 + 0.583333 y_48_53_3_1 + 0.25 y_48_58_3_1 + 0.666667 y_48_50_4_4 + 0.708333 y_49_51_1_4 + 0.708333 y_49_51_2_3 + 0.291667 y_49_51_2_4 + 0.916667 y_50_53_3_1 + 0.583333 y_50_58_3_1
 + 0.708333 y_51_52_1_4 + 0.708333 y_51_52_2_3 + 0.291667 y_51_52_2_4 + 0.541667 y_52_53_1_4 + 0.208333 y_52_58_1_4 + 0.541667 y_52_53_2_3 + 0.458333 y_52_53_2_4 + 0.208333 y_52_58_2_3 + 0.791667 y_52_58_2_4 + 0.666667 y_53_58_1_1
 + 0.333333 y_53_58_2_1 + 0.666667 y_53_58_2_2 + 0.666667 y_53_58_3_3 + 0.333333 y_53_58_3_4 + 0.666667 y_53_58_4_4

Subject To
 c1_1_14_1_3: x_1_1 + x_14_3 - y_1_14_1_3 <= 1
 c1_1_14_1_4: x_1_1 + x_14_4 - y_1_14_1_4 <= 1
 c1_1_14_2_3: x_1_2 + x_14_3 - y_1_14_2_3 <= 1
 c1_1_18_4_2: x_1_4 + x_18_2 - y_1_18_4_2 <= 1
 c1_2_39_1_3: x_2_1 + x_39_3 - y_2_39_1_3 <= 1
 c1_2_39_1_4: x_2_1 + x_39_4 - y_2_39_1_4 <= 1
 c1_2_40_1_2: x_2_1 + x_40_2 - y_2_40_1_2 <= 1
 c1_2_40_1_3: x_2_1 + x_40_3 - y_2_40_1_3 <= 1
 c1_2_41_1_3: x_2_1 + x_41_3 - y_2_41_1_3 <= 1
 c1_2_43_1_2: x_2_1 + x_43_2 - y_2_43_1_2 <= 1
 c1_2_32_2_1: x_2_2 + x_32_1 - y_2_32_2_1 <= 1
 c1_2_39_2_3: x_2_2 + x_39_3 - y_2_39_2_3 <= 1
 c1_2_32_3_4: x_2_3 + x_32_4 - y_2_32_3_4 <= 1
 c1_2_35_3_1: x_2_3 + x_35_1 - y_2_35_3_1 <= 1
 c1_2_35_3_2: x_2_3 + x_35_2 - y_2_35_3_2 <= 1
 c1_2_37_3_1: x_2_3 + x_37_1 - y_2_37_3_1 <= 1
 c1_2_37_3_2: x_2_3 + x_37_2 - y_2_37_3_2 <= 1
 c1_2_35_4_1: x_2_4 + x_35_1 - y_2_35_4_1 <= 1
 c1_2_37_4_1: x_2_4 + x_37_1 - y_2_37_4_1 <= 1
 c1_2_40_4_3: x_2_4 + x_40_3 - y_2_40_4_3 <= 1
 c1_2_43_4_2: x_2_4 + x_43_2 - y_2_43_4_2 <= 1
 c1_2_43_4_3: x_2_4 + x_43_3 - y_2_43_4_3 <= 1
 c1_3_4_1_2: x_3_1 + x_4_2 - y_3_4_1_2 <= 1
 c1_3_33_1_2: x_3_1 + x_33_2 - y_3_33_1_2 <= 1
 c1_3_15_2_1: x_3_2 + x_15_1 - y_3_15_2_1 <= 1
 c1_3_15_3_4: x_3_3 + x_15_4 - y_3_15_3_4 <= 1
 c1_3_4_4_3: x_3_4 + x_4_3 - y_3_4_4_3 <= 1
 c1_3_33_4_2: x_3_4 + x_33_2 - y_3_33_4_2 <= 1
 c1_3_33_4_3: x_3_4 + x_33_3 - y_3_33_4_3 <= 1
 c1_4_33_1_1: x_4_1 + x_33_1 - y_4_33_1_1 <= 1
 c1_4_33_2_1: x_4_2 + x_33_1 - y_4_33_2_1 <= 1
 c1_4_33_2_2: x_4_2 + x_33_2 - y_4_33_2_2 <= 1
 c1_4_33_3_1: x_4_3 + x_33_1 - y_4_33_3_1 <= 1
 c1_4_33_3_2: x_4_3 + x_33_2 - y_4_33_3_2 <= 1
 c1_4_33_3_3: x_4_3 + x_33_3 - y_4_33_3_3 <= 1
 c1_4_33_3_4: x_4_3 + x_33_4 - y_4_33_3_4 <= 1
 c1_4_33_4_1: x_4_4 + x_33_1 - y_4_33_4_1 <= 1
 c1_4_33_4_4: x_4_4 + x_33_4 - y_4_33_4_4 <= 1
 c1_5_9_1_2: x_5_1 + x_9_2 - y_5_9_1_2 <= 1
 c1_5_9_4_2: x_5_4 + x_9_2 - y_5_9_4_2 <= 1
 c1_5_9_4_3: x_5_4 + x_9_3 - y_5_9_4_3 <= 1
 c1_7_8_1_1: x_7_1 + x_8_1 - y_7_8_1_1 <= 1
 c1_7_8_1_2: x_7_1 + x_8_2 - y_7_8_1_2 <= 1
 c1_7_8_2_2: x_7_2 + x_8_2 - y_7_8_2_2 <= 1
 c1_7_8_3_3: x_7_3 + x_8_3 - y_7_8_3_3 <= 1
 c1_7_8_4_3: x_7_4 + x_8_3 - y_7_8_4_3 <= 1
 c1_7_8_4_4: x_7_4 + x_8_4 - y_7_8_4_4 <= 1
 c1_9_20_1_2: x_9_1 + x_20_2 - y_9_20_1_2 <= 1
 c1_9_20_4_3: x_9_4 + x_20_3 - y_9_20_4_3 <= 1
 c1_10_11_1_1: x_10_1 + x_11_1 - y_10_11_1_1 <= 1
 c1_10_19_1_1: x_10_1 + x_19_1 - y_10_19_1_1 <= 1
 c1_10_19_1_2: x_10_1 + x_19_2 - y_10_19_1_2 <= 1
 c1_10_19_1_3: x_10_1 + x_19_3 - y_10_19_1_3 <= 1
 c1_10_19_1_4: x_10_1 + x_19_4 - y_10_19_1_4 <= 1
 c1_10_21_1_3: x_10_1 + x_21_3 - y_10_21_1_3 <= 1
 c1_10_57_1_4: x_10_1 + x_57_4 - y_10_57_1_4 <= 1
 c1_10_11_2_1: x_10_2 + x_11_1 - y_10_11_2_1 <= 1
 c1_10_11_2_2: x_10_2 + x_11_2 - y_10_11_2_2 <= 1
 c1_10_19_2_2: x_10_2 + x_19_2 - y_10_19_2_2 <= 1
 c1_10_19_2_3: x_10_2 + x_19_3 - y_10_19_2_3 <= 1
 c1_10_57_2_3: x_10_2 + x_57_3 - y_10_57_2_3 <= 1
 c1_10_57_2_4: x_10_2 + x_57_4 - y_10_57_2_4 <= 1
 c1_10_11_3_3: x_10_3 + x_11_3 - y_10_11_3_3 <= 1
 c1_10_11_3_4: x_10_3 + x_11_4 - y_10_11_3_4 <= 1
 c1_10_19_3_3: x_10_3 + x_19_3 - y_10_19_3_3 <= 1
 c1_10_11_4_4: x_10_4 + x_11_4 - y_10_11_4_4 <= 1
 c1_10_19_4_3: x_10_4 + x_19_3 - y_10_19_4_3 <= 1
 c1_10_19_4_4: x_10_4 + x_19_4 - y_10_19_4_4 <= 1
 c1_11_19_1_2: x_11_1 + x_19_2 - y_11_19_1_2 <= 1
 c1_11_19_1_3: x_11_1 + x_19_3 - y_11_19_1_3 <= 1
 c1_11_21_1_3: x_11_1 + x_21_3 - y_11_21_1_3 <= 1
 c1_11_57_1_3: x_11_1 + x_57_3 - y_11_57_1_3 <= 1
 c1_11_57_1_4: x_11_1 + x_57_4 - y_11_57_1_4 <= 1
 c1_11_57_2_3: x_11_2 + x_57_3 - y_11_57_2_3 <= 1
 c1_11_19_4_3: x_11_4 + x_19_3 - y_11_19_4_3 <= 1
 c1_12_13_1_4: x_12_1 + x_13_4 - y_12_13_1_4 <= 1
 c1_12_13_2_3: x_12_2 + x_13_3 - y_12_13_2_3 <= 1
 c1_12_13_2_4: x_12_2 + x_13_4 - y_12_13_2_4 <= 1
 c1_12_57_3_2: x_12_3 + x_57_2 - y_12_57_3_2 <= 1
 c1_12_19_4_2: x_12_4 + x_19_2 - y_12_19_4_2 <= 1
 c1_12_57_4_1: x_12_4 + x_57_1 - y_12_57_4_1 <= 1
 c1_12_57_4_2: x_12_4 + x_57_2 - y_12_57_4_2 <= 1
 c1_14_24_1_3: x_14_1 + x_24_3 - y_14_24_1_3 <= 1
 c1_16_17_1_1: x_16_1 + x_17_1 - y_16_17_1_1 <= 1
 c1_16_17_1_2: x_16_1 + x_17_2 - y_16_17_1_2 <= 1
 c1_16_24_1_2: x_16_1 + x_24_2 - y_16_24_1_2 <= 1
 c1_16_25_1_2: x_16_1 + x_25_2 - y_16_25_1_2 <= 1
 c1_16_17_2_2: x_16_2 + x_17_2 - y_16_17_2_2 <= 1
 c1_16_17_3_3: x_16_3 + x_17_3 - y_16_17_3_3 <= 1
 c1_16_17_4_3: x_16_4 + x_17_3 - y_16_17_4_3 <= 1
 c1_16_17_4_4: x_16_4 + x_17_4 - y_16_17_4_4 <= 1
 c1_16_24_4_2: x_16_4 + x_24_2 - y_16_24_4_2 <= 1
 c1_16_24_4_3: x_16_4 + x_24_3 - y_16_24_4_3 <= 1
 c1_16_25_4_3: x_16_4 + x_25_3 - y_16_25_4_3 <= 1
 c1_17_24_1_1: x_17_1 + x_24_1 - y_17_24_1_1 <= 1
 c1_17_24_1_2: x_17_1 + x_24_2 - y_17_24_1_2 <= 1
 c1_17_25_1_2: x_17_1 + x_25_2 - y_17_25_1_2 <= 1
 c1_17_33_1_3: x_17_1 + x_33_3 - y_17_33_1_3 <= 1
 c1_17_24_2_2: x_17_2 + x_24_2 - y_17_24_2_2 <= 1
 c1_17_24_3_2: x_17_3 + x_24_2 - y_17_24_3_2 <= 1
 c1_17_24_3_3: x_17_3 + x_24_3 - y_17_24_3_3 <= 1
 c1_17_24_4_1: x_17_4 + x_24_1 - y_17_24_4_1 <= 1
 c1_17_24_4_2: x_17_4 + x_24_2 - y_17_24_4_2 <= 1
 c1_17_24_4_3: x_17_4 + x_24_3 - y_17_24_4_3 <= 1
 c1_17_24_4_4: x_17_4 + x_24_4 - y_17_24_4_4 <= 1
 c1_17_25_4_3: x_17_4 + x_25_3 - y_17_25_4_3 <= 1
 c1_18_23_1_1: x_18_1 + x_23_1 - y_18_23_1_1 <= 1
 c1_18_23_1_2: x_18_1 + x_23_2 - y_18_23_1_2 <= 1
 c1_18_23_2_2: x_18_2 + x_23_2 - y_18_23_2_2 <= 1
 c1_18_23_3_2: x_18_3 + x_23_2 - y_18_23_3_2 <= 1
 c1_18_23_3_3: x_18_3 + x_23_3 - y_18_23_3_3 <= 1
 c1_18_22_4_2: x_18_4 + x_22_2 - y_18_22_4_2 <= 1
 c1_18_23_4_1: x_18_4 + x_23_1 - y_18_23_4_1 <= 1
 c1_18_23_4_2: x_18_4 + x_23_2 - y_18_23_4_2 <= 1
 c1_18_23_4_3: x_18_4 + x_23_3 - y_18_23_4_3 <= 1
 c1_18_23_4_4: x_18_4 + x_23_4 - y_18_23_4_4 <= 1
 c1_19_21_1_3: x_19_1 + x_21_3 - y_19_21_1_3 <= 1
 c1_19_21_1_4: x_19_1 + x_21_4 - y_19_21_1_4 <= 1
 c1_19_21_2_3: x_19_2 + x_21_3 - y_19_21_2_3 <= 1
 c1_19_57_2_1: x_19_2 + x_57_1 - y_19_57_2_1 <= 1
 c1_19_57_2_4: x_19_2 + x_57_4 - y_19_57_2_4 <= 1
 c1_19_57_3_4: x_19_3 + x_57_4 - y_19_57_3_4 <= 1
 c1_19_28_4_2: x_19_4 + x_28_2 - y_19_28_4_2 <= 1
 c1_19_30_4_2: x_19_4 + x_30_2 - y_19_30_4_2 <= 1
 c1_21_34_1_3: x_21_1 + x_34_3 - y_21_34_1_3 <= 1
 c1_21_56_1_2: x_21_1 + x_56_2 - y_21_56_1_2 <= 1
 c1_21_56_1_3: x_21_1 + x_56_3 - y_21_56_1_3 <= 1
 c1_21_57_2_1: x_21_2 + x_57_1 - y_21_57_2_1 <= 1
 c1_21_57_3_1: x_21_3 + x_57_1 - y_21_57_3_1 <= 1
 c1_21_57_3_4: x_21_3 + x_57_4 - y_21_57_3_4 <= 1
 c1_21_56_4_3: x_21_4 + x_56_3 - y_21_56_4_3 <= 1
 c1_22_23_1_1: x_22_1 + x_23_1 - y_22_23_1_1 <= 1
 c1_22_23_1_4: x_22_1 + x_23_4 - y_22_23_1_4 <= 1
 c1_22_31_1_2: x_22_1 + x_31_2 - y_22_31_1_2 <= 1
 c1_22_23_2_1: x_22_2 + x_23_1 - y_22_23_2_1 <= 1
 c1_22_23_2_2: x_22_2 + x_23_2 - y_22_23_2_2 <= 1
 c1_22_23_2_3: x_22_2 + x_23_3 - y_22_23_2_3 <= 1
 c1_22_23_2_4: x_22_2 + x_23_4 - y_22_23_2_4 <= 1
 c1_22_23_3_3: x_22_3 + x_23_3 - y_22_23_3_3 <= 1
 c1_22_23_3_4: x_22_3 + x_23_4 - y_22_23_3_4 <= 1
 c1_22_26_3_2: x_22_3 + x_26_2 - y_22_26_3_2 <= 1
 c1_22_23_4_4: x_22_4 + x_23_4 - y_22_23_4_4 <= 1
 c1_22_26_4_1: x_22_4 + x_26_1 - y_22_26_4_1 <= 1
 c1_22_26_4_2: x_22_4 + x_26_2 - y_22_26_4_2 <= 1
 c1_22_31_4_2: x_22_4 + x_31_2 - y_22_31_4_2 <= 1
 c1_22_31_4_3: x_22_4 + x_31_3 - y_22_31_4_3 <= 1
 c1_23_26_3_2: x_23_3 + x_26_2 - y_23_26_3_2 <= 1
 c1_23_26_4_1: x_23_4 + x_26_1 - y_23_26_4_1 <= 1
 c1_23_26_4_2: x_23_4 + x_26_2 - y_23_26_4_2 <= 1
 c1_23_31_4_2: x_23_4 + x_31_2 - y_23_31_4_2 <= 1
 c1_24_25_1_1: x_24_1 + x_25_1 - y_24_25_1_1 <= 1
 c1_24_25_1_2: x_24_1 + x_25_2 - y_24_25_1_2 <= 1
 c1_24_25_1_3: x_24_1 + x_25_3 - y_24_25_1_3 <= 1
 c1_24_25_1_4: x_24_1 + x_25_4 - y_24_25_1_4 <= 1
 c1_24_32_1_2: x_24_1 + x_32_2 - y_24_32_1_2 <= 1
 c1_24_25_2_2: x_24_2 + x_25_2 - y_24_25_2_2 <= 1
 c1_24_25_2_3: x_24_2 + x_25_3 - y_24_25_2_3 <= 1
 c1_24_25_3_3: x_24_3 + x_25_3 - y_24_25_3_3 <= 1
 c1_24_25_4_3: x_24_4 + x_25_3 - y_24_25_4_3 <= 1
 c1_24_25_4_4: x_24_4 + x_25_4 - y_24_25_4_4 <= 1
 c1_24_32_4_3: x_24_4 + x_32_3 - y_24_32_4_3 <= 1
 c1_25_32_1_1: x_25_1 + x_32_1 - y_25_32_1_1 <= 1
 c1_25_32_1_2: x_25_1 + x_32_2 - y_25_32_1_2 <= 1
 c1_25_33_1_3: x_25_1 + x_33_3 - y_25_33_1_3 <= 1
 c1_25_33_1_4: x_25_1 + x_33_4 - y_25_33_1_4 <= 1
 c1_25_32_2_2: x_25_2 + x_32_2 - y_25_32_2_2 <= 1
 c1_25_33_2_3: x_25_2 + x_33_3 - y_25_33_2_3 <= 1
 c1_25_32_3_2: x_25_3 + x_32_2 - y_25_32_3_2 <= 1
 c1_25_32_3_3: x_25_3 + x_32_3 - y_25_32_3_3 <= 1
 c1_25_32_4_1: x_25_4 + x_32_1 - y_25_32_4_1 <= 1
 c1_25_32_4_2: x_25_4 + x_32_2 - y_25_32_4_2 <= 1
 c1_25_32_4_3: x_25_4 + x_32_3 - y_25_32_4_3 <= 1
 c1_25_32_4_4: x_25_4 + x_32_4 - y_25_32_4_4 <= 1
 c1_26_31_1_1: x_26_1 + x_31_1 - y_26_31_1_1 <= 1
 c1_26_31_1_2: x_26_1 + x_31_2 - y_26_31_1_2 <= 1
 c1_26_31_1_3: x_26_1 + x_31_3 - y_26_31_1_3 <= 1
 c1_26_31_1_4: x_26_1 + x_31_4 - y_26_31_1_4 <= 1
 c1_26_47_1_2: x_26_1 + x_47_2 - y_26_47_1_2 <= 1
 c1_26_31_2_2: x_26_2 + x_31_2 - y_26_31_2_2 <= 1
 c1_26_31_2_3: x_26_2 + x_31_3 - y_26_31_2_3 <= 1
 c1_26_31_3_3: x_26_3 + x_31_3 - y_26_31_3_3 <= 1
 c1_26_31_4_3: x_26_4 + x_31_3 - y_26_31_4_3 <= 1
 c1_26_31_4_4: x_26_4 + x_31_4 - y_26_31_4_4 <= 1
 c1_26_34_4_2: x_26_4 + x_34_2 - y_26_34_4_2 <= 1
 c1_26_47_4_3: x_26_4 + x_47_3 - y_26_47_4_3 <= 1
 c1_27_29_1_3: x_27_1 + x_29_3 - y_27_29_1_3 <= 1
 c1_27_29_1_4: x_27_1 + x_29_4 - y_27_29_1_4 <= 1
 c1_27_53_1_2: x_27_1 + x_53_2 - y_27_53_1_2 <= 1
 c1_27_58_1_1: x_27_1 + x_58_1 - y_27_58_1_1 <= 1
 c1_27_58_1_2: x_27_1 + x_58_2 - y_27_58_1_2 <= 1
 c1_27_29_2_3: x_27_2 + x_29_3 - y_27_29_2_3 <= 1
 c1_27_58_2_2: x_27_2 + x_58_2 - y_27_58_2_2 <= 1
 c1_27_58_3_2: x_27_3 + x_58_2 - y_27_58_3_2 <= 1
 c1_27_58_3_3: x_27_3 + x_58_3 - y_27_58_3_3 <= 1
 c1_27_52_4_2: x_27_4 + x_52_2 - y_27_52_4_2 <= 1
 c1_27_53_4_2: x_27_4 + x_53_2 - y_27_53_4_2 <= 1
 c1_27_53_4_3: x_27_4 + x_53_3 - y_27_53_4_3 <= 1
 c1_27_58_4_1: x_27_4 + x_58_1 - y_27_58_4_1 <= 1
 c1_27_58_4_2: x_27_4 + x_58_2 - y_27_58_4_2 <= 1
 c1_27_58_4_3: x_27_4 + x_58_3 - y_27_58_4_3 <= 1
 c1_27_58_4_4: x_27_4 + x_58_4 - y_27_58_4_4 <= 1
 c1_28_30_1_1: x_28_1 + x_30_1 - y_28_30_1_1 <= 1
 c1_28_30_1_2: x_28_1 + x_30_2 - y_28_30_1_2 <= 1
 c1_28_54_1_2: x_28_1 + x_54_2 - y_28_54_1_2 <= 1
 c1_28_54_1_3: x_28_1 + x_54_3 - y_28_54_1_3 <= 1
 c1_28_30_2_2: x_28_2 + x_30_2 - y_28_30_2_2 <= 1
 c1_28_29_3_2: x_28_3 + x_29_2 - y_28_29_3_2 <= 1
 c1_28_30_3_3: x_28_3 + x_30_3 - y_28_30_3_3 <= 1
 c1_28_29_4_1: x_28_4 + x_29_1 - y_28_29_4_1 <= 1
 c1_28_29_4_2: x_28_4 + x_29_2 - y_28_29_4_2 <= 1
 c1_28_30_4_3: x_28_4 + x_30_3 - y_28_30_4_3 <= 1
 c1_28_30_4_4: x_28_4 + x_30_4 - y_28_30_4_4 <= 1
 c1_28_54_4_3: x_28_4 + x_54_3 - y_28_54_4_3 <= 1
 c1_29_30_1_3: x_29_1 + x_30_3 - y_29_30_1_3 <= 1
 c1_29_30_1_4: x_29_1 + x_30_4 - y_29_30_1_4 <= 1
 c1_29_30_2_3: x_29_2 + x_30_3 - y_29_30_2_3 <= 1
 c1_29_48_4_2: x_29_4 + x_48_2 - y_29_48_4_2 <= 1
 c1_29_50_4_2: x_29_4 + x_50_2 - y_29_50_4_2 <= 1
 c1_30_54_1_2: x_30_1 + x_54_2 - y_30_54_1_2 <= 1
 c1_30_54_1_3: x_30_1 + x_54_3 - y_30_54_1_3 <= 1
 c1_30_54_4_3: x_30_4 + x_54_3 - y_30_54_4_3 <= 1
 c1_31_46_1_3: x_31_1 + x_46_3 - y_31_46_1_3 <= 1
 c1_31_47_1_2: x_31_1 + x_47_2 - y_31_47_1_2 <= 1
 c1_31_55_1_3: x_31_1 + x_55_3 - y_31_55_1_3 <= 1
 c1_31_45_4_2: x_31_4 + x_45_2 - y_31_45_4_2 <= 1
 c1_31_47_4_2: x_31_4 + x_47_2 - y_31_47_4_2 <= 1
 c1_31_47_4_3: x_31_4 + x_47_3 - y_31_47_4_3 <= 1
 c1_32_35_3_2: x_32_3 + x_35_2 - y_32_35_3_2 <= 1
 c1_32_35_4_1: x_32_4 + x_35_1 - y_32_35_4_1 <= 1
 c1_32_35_4_2: x_32_4 + x_35_2 - y_32_35_4_2 <= 1
 c1_32_37_4_2: x_32_4 + x_37_2 - y_32_37_4_2 <= 1
 c1_34_45_1_2: x_34_1 + x_45_2 - y_34_45_1_2 <= 1
 c1_34_45_1_3: x_34_1 + x_45_3 - y_34_45_1_3 <= 1
 c1_34_47_1_3: x_34_1 + x_47_3 - y_34_47_1_3 <= 1
 c1_34_47_1_4: x_34_1 + x_47_4 - y_34_47_1_4 <= 1
 c1_34_56_1_1: x_34_1 + x_56_1 - y_34_56_1_1 <= 1
 c1_34_47_2_3: x_34_2 + x_47_3 - y_34_47_2_3 <= 1
 c1_34_56_2_1: x_34_2 + x_56_1 - y_34_56_2_1 <= 1
 c1_34_56_2_2: x_34_2 + x_56_2 - y_34_56_2_2 <= 1
 c1_34_56_3_1: x_34_3 + x_56_1 - y_34_56_3_1 <= 1
 c1_34_56_3_2: x_34_3 + x_56_2 - y_34_56_3_2 <= 1
 c1_34_56_3_3: x_34_3 + x_56_3 - y_34_56_3_3 <= 1
 c1_34_56_3_4: x_34_3 + x_56_4 - y_34_56_3_4 <= 1
 c1_34_45_4_3: x_34_4 + x_45_3 - y_34_45_4_3 <= 1
 c1_34_56_4_1: x_34_4 + x_56_1 - y_34_56_4_1 <= 1
 c1_34_56_4_4: x_34_4 + x_56_4 - y_34_56_4_4 <= 1
 c1_35_37_1_1: x_35_1 + x_37_1 - y_35_37_1_1 <= 1
 c1_35_37_1_2: x_35_1 + x_37_2 - y_35_37_1_2 <= 1
 c1_35_38_1_1: x_35_1 + x_38_1 - y_35_38_1_1 <= 1
 c1_35_38_1_2: x_35_1 + x_38_2 - y_35_38_1_2 <= 1
 c1_35_37_2_2: x_35_2 + x_37_2 - y_35_37_2_2 <= 1
 c1_35_38_2_2: x_35_2 + x_38_2 - y_35_38_2_2 <= 1
 c1_35_36_3_2: x_35_3 + x_36_2 - y_35_36_3_2 <= 1
 c1_35_37_3_3: x_35_3 + x_37_3 - y_35_37_3_3 <= 1
 c1_35_38_3_2: x_35_3 + x_38_2 - y_35_38_3_2 <= 1
 c1_35_38_3_3: x_35_3 + x_38_3 - y_35_38_3_3 <= 1
 c1_35_36_4_1: x_35_4 + x_36_1 - y_35_36_4_1 <= 1
 c1_35_36_4_2: x_35_4 + x_36_2 - y_35_36_4_2 <= 1
 c1_35_37_4_3: x_35_4 + x_37_3 - y_35_37_4_3 <= 1
 c1_35_37_4_4: x_35_4 + x_37_4 - y_35_37_4_4 <= 1
 c1_35_38_4_1: x_35_4 + x_38_1 - y_35_38_4_1 <= 1
 c1_35_38_4_2: x_35_4 + x_38_2 - y_35_38_4_2 <= 1
 c1_35_38_4_3: x_35_4 + x_38_3 - y_35_38_4_3 <= 1
 c1_35_38_4_4: x_35_4 + x_38_4 - y_35_38_4_4 <= 1
 c1_36_37_1_3: x_36_1 + x_37_3 - y_36_37_1_3 <= 1
 c1_36_37_1_4: x_36_1 + x_37_4 - y_36_37_1_4 <= 1
 c1_36_38_1_3: x_36_1 + x_38_3 - y_36_38_1_3 <= 1
 c1_36_38_1_4: x_36_1 + x_38_4 - y_36_38_1_4 <= 1
 c1_36_37_2_3: x_36_2 + x_37_3 - y_36_37_2_3 <= 1
 c1_36_38_2_3: x_36_2 + x_38_3 - y_36_38_2_3 <= 1
 c1_36_46_3_2: x_36_3 + x_46_2 - y_36_46_3_2 <= 1
 c1_36_46_4_1: x_36_4 + x_46_1 - y_36_46_4_1 <= 1
 c1_36_46_4_2: x_36_4 + x_46_2 - y_36_46_4_2 <= 1
 c1_36_55_4_2: x_36_4 + x_55_2 - y_36_55_4_2 <= 1
 c1_37_38_1_1: x_37_1 + x_38_1 - y_37_38_1_1 <= 1
 c1_37_38_1_2: x_37_1 + x_38_2 - y_37_38_1_2 <= 1
 c1_37_43_1_3: x_37_1 + x_43_3 - y_37_43_1_3 <= 1
 c1_37_38_2_2: x_37_2 + x_38_2 - y_37_38_2_2 <= 1
 c1_37_38_3_2: x_37_3 + x_38_2 - y_37_38_3_2 <= 1
 c1_37_38_3_3: x_37_3 + x_38_3 - y_37_38_3_3 <= 1
 c1_37_38_4_1: x_37_4 + x_38_1 - y_37_38_4_1 <= 1
 c1_37_38_4_2: x_37_4 + x_38_2 - y_37_38_4_2 <= 1
 c1_37_38_4_3: x_37_4 + x_38_3 - y_37_38_4_3 <= 1
 c1_37_38_4_4: x_37_4 + x_38_4 - y_37_38_4_4 <= 1
 c1_38_43_1_3: x_38_1 + x_43_3 - y_38_43_1_3 <= 1
 c1_39_41_1_1: x_39_1 + x_41_1 - y_39_41_1_1 <= 1
 c1_39_41_1_2: x_39_1 + x_41_2 - y_39_41_1_2 <= 1
 c1_39_41_2_2: x_39_2 + x_41_2 - y_39_41_2_2 <= 1
 c1_39_40_3_2: x_39_3 + x_40_2 - y_39_40_3_2 <= 1
 c1_39_41_3_2: x_39_3 + x_41_2 - y_39_41_3_2 <= 1
 c1_39_41_3_3: x_39_3 + x_41_3 - y_39_41_3_3 <= 1
 c1_39_40_4_1: x_39_4 + x_40_1 - y_39_40_4_1 <= 1
 c1_39_40_4_2: x_39_4 + x_40_2 - y_39_40_4_2 <= 1
 c1_39_41_4_1: x_39_4 + x_41_1 - y_39_41_4_1 <= 1
 c1_39_41_4_2: x_39_4 + x_41_2 - y_39_41_4_2 <= 1
 c1_39_41_4_3: x_39_4 + x_41_3 - y_39_41_4_3 <= 1
 c1_39_41_4_4: x_39_4 + x_41_4 - y_39_41_4_4 <= 1
 c1_40_41_1_1: x_40_1 + x_41_1 - y_40_41_1_1 <= 1
 c1_40_41_1_2: x_40_1 + x_41_2 - y_40_41_1_2 <= 1
 c1_40_41_1_3: x_40_1 + x_41_3 - y_40_41_1_3 <= 1
 c1_40_41_1_4: x_40_1 + x_41_4 - y_40_41_1_4 <= 1
 c1_40_41_2_2: x_40_2 + x_41_2 - y_40_41_2_2 <= 1
 c1_40_41_2_3: x_40_2 + x_41_3 - y_40_41_2_3 <= 1
 c1_40_41_3_3: x_40_3 + x_41_3 - y_40_41_3_3 <= 1
 c1_40_43_3_2: x_40_3 + x_43_2 - y_40_43_3_2 <= 1
 c1_40_41_4_3: x_40_4 + x_41_3 - y_40_41_4_3 <= 1
 c1_40_41_4_4: x_40_4 + x_41_4 - y_40_41_4_4 <= 1
 c1_40_43_4_1: x_40_4 + x_43_1 - y_40_43_4_1 <= 1
 c1_40_43_4_2: x_40_4 + x_43_2 - y_40_43_4_2 <= 1
 c1_41_43_3_1: x_41_3 + x_43_1 - y_41_43_3_1 <= 1
 c1_41_43_3_2: x_41_3 + x_43_2 - y_41_43_3_2 <= 1
 c1_41_43_4_1: x_41_4 + x_43_1 - y_41_43_4_1 <= 1
 c1_42_46_2_1: x_42_2 + x_46_1 - y_42_46_2_1 <= 1
 c1_42_46_2_4: x_42_2 + x_46_4 - y_42_46_2_4 <= 1
 c1_42_55_2_1: x_42_2 + x_55_1 - y_42_55_2_1 <= 1
 c1_42_46_3_4: x_42_3 + x_46_4 - y_42_46_3_4 <= 1
 c1_42_47_3_1: x_42_3 + x_47_1 - y_42_47_3_1 <= 1
 c1_42_55_3_4: x_42_3 + x_55_4 - y_42_55_3_4 <= 1
 c1_44_54_1_4: x_44_1 + x_54_4 - y_44_54_1_4 <= 1
 c1_44_54_2_3: x_44_2 + x_54_3 - y_44_54_2_3 <= 1
 c1_44_54_2_4: x_44_2 + x_54_4 - y_44_54_2_4 <= 1
 c1_45_47_1_4: x_45_1 + x_47_4 - y_45_47_1_4 <= 1
 c1_45_47_2_3: x_45_2 + x_47_3 - y_45_47_2_3 <= 1
 c1_45_47_2_4: x_45_2 + x_47_4 - y_45_47_2_4 <= 1
 c1_45_56_3_1: x_45_3 + x_56_1 - y_45_56_3_1 <= 1
 c1_46_55_1_1: x_46_1 + x_55_1 - y_46_55_1_1 <= 1
 c1_46_55_1_2: x_46_1 + x_55_2 - y_46_55_1_2 <= 1
 c1_46_55_2_2: x_46_2 + x_55_2 - y_46_55_2_2 <= 1
 c1_46_55_3_2: x_46_3 + x_55_2 - y_46_55_3_2 <= 1
 c1_46_55_3_3: x_46_3 + x_55_3 - y_46_55_3_3 <= 1
 c1_46_55_4_1: x_46_4 + x_55_1 - y_46_55_4_1 <= 1
 c1_46_55_4_2: x_46_4 + x_55_2 - y_46_55_4_2 <= 1
 c1_46_55_4_3: x_46_4 + x_55_3 - y_46_55_4_3 <= 1
 c1_46_55_4_4: x_46_4 + x_55_4 - y_46_55_4_4 <= 1
 c1_47_55_1_3: x_47_1 + x_55_3 - y_47_55_1_3 <= 1
 c1_47_55_1_4: x_47_1 + x_55_4 - y_47_55_1_4 <= 1
 c1_47_55_2_3: x_47_2 + x_55_3 - y_47_55_2_3 <= 1
 c1_48_50_1_1: x_48_1 + x_50_1 - y_48_50_1_1 <= 1
 c1_48_50_2_1: x_48_2 + x_50_1 - y_48_50_2_1 <= 1
 c1_48_50_2_2: x_48_2 + x_50_2 - y_48_50_2_2 <= 1
 c1_48_50_3_3: x_48_3 + x_50_3 - y_48_50_3_3 <= 1
 c1_48_50_3_4: x_48_3 + x_50_4 - y_48_50_3_4 <= 1
 c1_48_53_3_1: x_48_3 + x_53_1 - y_48_53_3_1 <= 1
 c1_48_58_3_1: x_48_3 + x_58_1 - y_48_58_3_1 <= 1
 c1_48_50_4_4: x_48_4 + x_50_4 - y_48_50_4_4 <= 1
 c1_49_51_1_4: x_49_1 + x_51_4 - y_49_51_1_4 <= 1
 c1_49_51_2_3: x_49_2 + x_51_3 - y_49_51_2_3 <= 1
 c1_49_51_2_4: x_49_2 + x_51_4 - y_49_51_2_4 <= 1
 c1_50_53_3_1: x_50_3 + x_53_1 - y_50_53_3_1 <= 1
 c1_50_58_3_1: x_50_3 + x_58_1 - y_50_58_3_1 <= 1
 c1_51_52_1_4: x_51_1 + x_52_4 - y_51_52_1_4 <= 1
 c1_51_52_2_3: x_51_2 + x_52_3 - y_51_52_2_3 <= 1
 c1_51_52_2_4: x_51_2 + x_52_4 - y_51_52_2_4 <= 1
 c1_52_53_1_4: x_52_1 + x_53_4 - y_52_53_1_4 <= 1
 c1_52_58_1_4: x_52_1 + x_58_4 - y_52_58_1_4 <= 1
 c1_52_53_2_3: x_52_2 + x_53_3 - y_52_53_2_3 <= 1
 c1_52_53_2_4: x_52_2 + x_53_4 - y_52_53_2_4 <= 1
 c1_52_58_2_3: x_52_2 + x_58_3 - y_52_58_2_3 <= 1
 c1_52_58_2_4: x_52_2 + x_58_4 - y_52_58_2_4 <= 1
 c1_53_58_1_1: x_53_1 + x_58_1 - y_53_58_1_1 <= 1
 c1_53_58_2_1: x_53_2 + x_58_1 - y_53_58_2_1 <= 1
 c1_53_58_2_2: x_53_2 + x_58_2 - y_53_58_2_2 <= 1
 c1_53_58_3_3: x_53_3 + x_58_3 - y_53_58_3_3 <= 1
 c1_53_58_3_4: x_53_3 + x_58_4 - y_53_58_3_4 <= 1
 c1_53_58_4_4: x_53_4 + x_58_4 - y_53_58_4_4 <= 1
 c2_1: x_1_1 + x_1_2 + x_1_3 + x_1_4 = 1
 c2_2: x_2_1 + x_2_2 + x_2_3 + x_2_4 = 1
 c2_3: x_3_1 + x_3_2 + x_3_3 + x_3_4 = 1
 c2_4: x_4_1 + x_4_2 + x_4_3 + x_4_4 = 1
 c2_5: x_5_1 + x_5_2 + x_5_3 + x_5_4 = 1
 c2_6: x_6_1 + x_6_2 + x_6_3 + x_6_4 = 1
 c2_7: x_7_1 + x_7_2 + x_7_3 + x_7_4 = 1
 c2_8: x_8_1 + x_8_2 + x_8_3 + x_8_4 = 1
 c2_9: x_9_1 + x_9_2 + x_9_3 + x_9_4 = 1
 c2_10: x_10_1 + x_10_2 + x_10_3 + x_10_4 = 1
 c2_11: x_11_1 + x_11_2 + x_11_3 + x_11_4 = 1
 c2_12: x_12_1 + x_12_2 + x_12_3 + x_12_4 = 1
 c2_13: x_13_1 + x_13_2 + x_13_3 + x_13_4 = 1
 c2_14: x_14_1 + x_14_2 + x_14_3 + x_14_4 = 1
 c2_15: x_15_1 + x_15_2 + x_15_3 + x_15_4 = 1
 c2_16: x_16_1 + x_16_2 + x_16_3 + x_16_4 = 1
 c2_17: x_17_1 + x_17_2 + x_17_3 + x_17_4 = 1
 c2_18: x_18_1 + x_18_2 + x_18_3 + x_18_4 = 1
 c2_19: x_19_1 + x_19_2 + x_19_3 + x_19_4 = 1
 c2_20: x_20_1 + x_20_2 + x_20_3 + x_20_4 = 1
 c2_21: x_21_1 + x_21_2 + x_21_3 + x_21_4 = 1
 c2_22: x_22_1 + x_22_2 + x_22_3 + x_22_4 = 1
 c2_23: x_23_1 + x_23_2 + x_23_3 + x_23_4 = 1
 c2_24: x_24_1 + x_24_2 + x_24_3 + x_24_4 = 1
 c2_25: x_25_1 + x_25_2 + x_25_3 + x_25_4 = 1
 c2_26: x_26_1 + x_26_2 + x_26_3 + x_26_4 = 1
 c2_27: x_27_1 + x_27_2 + x_27_3 + x_27_4 = 1
 c2_28: x_28_1 + x_28_2 + x_28_3 + x_28_4 = 1
 c2_29: x_29_1 + x_29_2 + x_29_3 + x_29_4 = 1
 c2_30: x_30_1 + x_30_2 + x_30_3 + x_30_4 = 1
 c2_31: x_31_1 + x_31_2 + x_31_3 + x_31_4 = 1
 c2_32: x_32_1 + x_32_2 + x_32_3 + x_32_4 = 1
 c2_33: x_33_1 + x_33_2 + x_33_3 + x_33_4 = 1
 c2_34: x_34_1 + x_34_2 + x_34_3 + x_34_4 = 1
 c2_35: x_35_1 + x_35_2 + x_35_3 + x_35_4 = 1
 c2_36: x_36_1 + x_36_2 + x_36_3 + x_36_4 = 1
 c2_37: x_37_1 + x_37_2 + x_37_3 + x_37_4 = 1
 c2_38: x_38_1 + x_38_2 + x_38_3 + x_38_4 = 1
 c2_39: x_39_1 + x_39_2 + x_39_3 + x_39_4 = 1
 c2_40: x_40_1 + x_40_2 + x_40_3 + x_40_4 = 1
 c2_41: x_41_1 + x_41_2 + x_41_3 + x_41_4 = 1
 c2_42: x_42_1 + x_42_2 + x_42_3 + x_42_4 = 1
 c2_43: x_43_1 + x_43_2 + x_43_3 + x_43_4 = 1
 c2_44: x_44_1 + x_44_2 + x_44_3 + x_44_4 = 1
 c2_45: x_45_1 + x_45_2 + x_45_3 + x_45_4 = 1
 c2_46: x_46_1 + x_46_2 + x_46_3 + x_46_4 = 1
 c2_47: x_47_1 + x_47_2 + x_47_3 + x_47_4 = 1
 c2_48: x_48_1 + x_48_2 + x_48_3 + x_48_4 = 1
 c2_49: x_49_1 + x_49_2 + x_49_3 + x_49_4 = 1
 c2_50: x_50_1 + x_50_2 + x_50_3 + x_50_4 = 1
 c2_51: x_51_1 + x_51_2 + x_51_3 + x_51_4 = 1
 c2_52: x_52_1 + x_52_2 + x_52_3 + x_52_4 = 1
 c2_53: x_53_1 + x_53_2 + x_53_3 + x_53_4 = 1
 c2_54: x_54_1 + x_54_2 + x_54_3 + x_54_4 = 1
 c2_55: x_55_1 + x_55_2 + x_55_3 + x_55_4 = 1
 c2_56: x_56_1 + x_56_2 + x_56_3 + x_56_4 = 1
 c2_57: x_57_1 + x_57_2 + x_57_3 + x_57_4 = 1
 c2_58: x_58_1 + x_58_2 + x_58_3 + x_58_4 = 1
Bounds
 0 <= y_1_14_1_3 <= 1
 0 <= y_1_14_1_4 <= 1
 0 <= y_1_14_2_3 <= 1
 0 <= y_1_18_4_2 <= 1
 0 <= y_2_39_1_3 <= 1
 0 <= y_2_39_1_4 <= 1
 0 <= y_2_40_1_2 <= 1
 0 <= y_2_40_1_3 <= 1
 0 <= y_2_41_1_3 <= 1
 0 <= y_2_43_1_2 <= 1
 0 <= y_2_32_2_1 <= 1
 0 <= y_2_39_2_3 <= 1
 0 <= y_2_32_3_4 <= 1
 0 <= y_2_35_3_1 <= 1
 0 <= y_2_35_3_2 <= 1
 0 <= y_2_37_3_1 <= 1
 0 <= y_2_37_3_2 <= 1
 0 <= y_2_35_4_1 <= 1
 0 <= y_2_37_4_1 <= 1
 0 <= y_2_40_4_3 <= 1
 0 <= y_2_43_4_2 <= 1
 0 <= y_2_43_4_3 <= 1
 0 <= y_3_4_1_2 <= 1
 0 <= y_3_33_1_2 <= 1
 0 <= y_3_15_2_1 <= 1
 0 <= y_3_15_3_4 <= 1
 0 <= y_3_4_4_3 <= 1
 0 <= y_3_33_4_2 <= 1
 0 <= y_3_33_4_3 <= 1
 0 <= y_4_33_1_1 <= 1
 0 <= y_4_33_2_1 <= 1
 0 <= y_4_33_2_2 <= 1
 0 <= y_4_33_3_1 <= 1
 0 <= y_4_33_3_2 <= 1
 0 <= y_4_33_3_3 <= 1
 0 <= y_4_33_3_4 <= 1
 0 <= y_4_33_4_1 <= 1
 0 <= y_4_33_4_4 <= 1
 0 <= y_5_9_1_2 <= 1
 0 <= y_5_9_4_2 <= 1
 0 <= y_5_9_4_3 <= 1
 0 <= y_7_8_1_1 <= 1
 0 <= y_7_8_1_2 <= 1
 0 <= y_7_8_2_2 <= 1
 0 <= y_7_8_3_3 <= 1
 0 <= y_7_8_4_3 <= 1
 0 <= y_7_8_4_4 <= 1
 0 <= y_9_20_1_2 <= 1
 0 <= y_9_20_4_3 <= 1
 0 <= y_10_11_1_1 <= 1
 0 <= y_10_19_1_1 <= 1
 0 <= y_10_19_1_2 <= 1
 0 <= y_10_19_1_3 <= 1
 0 <= y_10_19_1_4 <= 1
 0 <= y_10_21_1_3 <= 1
 0 <= y_10_57_1_4 <= 1
 0 <= y_10_11_2_1 <= 1
 0 <= y_10_11_2_2 <= 1
 0 <= y_10_19_2_2 <= 1
 0 <= y_10_19_2_3 <= 1
 0 <= y_10_57_2_3 <= 1
 0 <= y_10_57_2_4 <= 1
 0 <= y_10_11_3_3 <= 1
 0 <= y_10_11_3_4 <= 1
 0 <= y_10_19_3_3 <= 1
 0 <= y_10_11_4_4 <= 1
 0 <= y_10_19_4_3 <= 1
 0 <= y_10_19_4_4 <= 1
 0 <= y_11_19_1_2 <= 1
 0 <= y_11_19_1_3 <= 1
 0 <= y_11_21_1_3 <= 1
 0 <= y_11_57_1_3 <= 1
 0 <= y_11_57_1_4 <= 1
 0 <= y_11_57_2_3 <= 1
 0 <= y_11_19_4_3 <= 1
 0 <= y_12_13_1_4 <= 1
 0 <= y_12_13_2_3 <= 1
 0 <= y_12_13_2_4 <= 1
 0 <= y_12_57_3_2 <= 1
 0 <= y_12_19_4_2 <= 1
 0 <= y_12_57_4_1 <= 1
 0 <= y_12_57_4_2 <= 1
 0 <= y_14_24_1_3 <= 1
 0 <= y_16_17_1_1 <= 1
 0 <= y_16_17_1_2 <= 1
 0 <= y_16_24_1_2 <= 1
 0 <= y_16_25_1_2 <= 1
 0 <= y_16_17_2_2 <= 1
 0 <= y_16_17_3_3 <= 1
 0 <= y_16_17_4_3 <= 1
 0 <= y_16_17_4_4 <= 1
 0 <= y_16_24_4_2 <= 1
 0 <= y_16_24_4_3 <= 1
 0 <= y_16_25_4_3 <= 1
 0 <= y_17_24_1_1 <= 1
 0 <= y_17_24_1_2 <= 1
 0 <= y_17_25_1_2 <= 1
 0 <= y_17_33_1_3 <= 1
 0 <= y_17_24_2_2 <= 1
 0 <= y_17_24_3_2 <= 1
 0 <= y_17_24_3_3 <= 1
 0 <= y_17_24_4_1 <= 1
 0 <= y_17_24_4_2 <= 1
 0 <= y_17_24_4_3 <= 1
 0 <= y_17_24_4_4 <= 1
 0 <= y_17_25_4_3 <= 1
 0 <= y_18_23_1_1 <= 1
 0 <= y_18_23_1_2 <= 1
 0 <= y_18_23_2_2 <= 1
 0 <= y_18_23_3_2 <= 1
 0 <= y_18_23_3_3 <= 1
 0 <= y_18_22_4_2 <= 1
 0 <= y_18_23_4_1 <= 1
 0 <= y_18_23_4_2 <= 1
 0 <= y_18_23_4_3 <= 1
 0 <= y_18_23_4_4 <= 1
 0 <= y_19_21_1_3 <= 1
 0 <= y_19_21_1_4 <= 1
 0 <= y_19_21_2_3 <= 1
 0 <= y_19_57_2_1 <= 1
 0 <= y_19_57_2_4 <= 1
 0 <= y_19_57_3_4 <= 1
 0 <= y_19_28_4_2 <= 1
 0 <= y_19_30_4_2 <= 1
 0 <= y_21_34_1_3 <= 1
 0 <= y_21_56_1_2 <= 1
 0 <= y_21_56_1_3 <= 1
 0 <= y_21_57_2_1 <= 1
 0 <= y_21_57_3_1 <= 1
 0 <= y_21_57_3_4 <= 1
 0 <= y_21_56_4_3 <= 1
 0 <= y_22_23_1_1 <= 1
 0 <= y_22_23_1_4 <= 1
 0 <= y_22_31_1_2 <= 1
 0 <= y_22_23_2_1 <= 1
 0 <= y_22_23_2_2 <= 1
 0 <= y_22_23_2_3 <= 1
 0 <= y_22_23_2_4 <= 1
 0 <= y_22_23_3_3 <= 1
 0 <= y_22_23_3_4 <= 1
 0 <= y_22_26_3_2 <= 1
 0 <= y_22_23_4_4 <= 1
 0 <= y_22_26_4_1 <= 1
 0 <= y_22_26_4_2 <= 1
 0 <= y_22_31_4_2 <= 1
 0 <= y_22_31_4_3 <= 1
 0 <= y_23_26_3_2 <= 1
 0 <= y_23_26_4_1 <= 1
 0 <= y_23_26_4_2 <= 1
 0 <= y_23_31_4_2 <= 1
 0 <= y_24_25_1_1 <= 1
 0 <= y_24_25_1_2 <= 1
 0 <= y_24_25_1_3 <= 1
 0 <= y_24_25_1_4 <= 1
 0 <= y_24_32_1_2 <= 1
 0 <= y_24_25_2_2 <= 1
 0 <= y_24_25_2_3 <= 1
 0 <= y_24_25_3_3 <= 1
 0 <= y_24_25_4_3 <= 1
 0 <= y_24_25_4_4 <= 1
 0 <= y_24_32_4_3 <= 1
 0 <= y_25_32_1_1 <= 1
 0 <= y_25_32_1_2 <= 1
 0 <= y_25_33_1_3 <= 1
 0 <= y_25_33_1_4 <= 1
 0 <= y_25_32_2_2 <= 1
 0 <= y_25_33_2_3 <= 1
 0 <= y_25_32_3_2 <= 1
 0 <= y_25_32_3_3 <= 1
 0 <= y_25_32_4_1 <= 1
 0 <= y_25_32_4_2 <= 1
 0 <= y_25_32_4_3 <= 1
 0 <= y_25_32_4_4 <= 1
 0 <= y_26_31_1_1 <= 1
 0 <= y_26_31_1_2 <= 1
 0 <= y_26_31_1_3 <= 1
 0 <= y_26_31_1_4 <= 1
 0 <= y_26_47_1_2 <= 1
 0 <= y_26_31_2_2 <= 1
 0 <= y_26_31_2_3 <= 1
 0 <= y_26_31_3_3 <= 1
 0 <= y_26_31_4_3 <= 1
 0 <= y_26_31_4_4 <= 1
 0 <= y_26_34_4_2 <= 1
 0 <= y_26_47_4_3 <= 1
 0 <= y_27_29_1_3 <= 1
 0 <= y_27_29_1_4 <= 1
 0 <= y_27_53_1_2 <= 1
 0 <= y_27_58_1_1 <= 1
 0 <= y_27_58_1_2 <= 1
 0 <= y_27_29_2_3 <= 1
 0 <= y_27_58_2_2 <= 1
 0 <= y_27_58_3_2 <= 1
 0 <= y_27_58_3_3 <= 1
 0 <= y_27_52_4_2 <= 1
 0 <= y_27_53_4_2 <= 1
 0 <= y_27_53_4_3 <= 1
 0 <= y_27_58_4_1 <= 1
 0 <= y_27_58_4_2 <= 1
 0 <= y_27_58_4_3 <= 1
 0 <= y_27_58_4_4 <= 1
 0 <= y_28_30_1_1 <= 1
 0 <= y_28_30_1_2 <= 1
 0 <= y_28_54_1_2 <= 1
 0 <= y_28_54_1_3 <= 1
 0 <= y_28_30_2_2 <= 1
 0 <= y_28_29_3_2 <= 1
 0 <= y_28_30_3_3 <= 1
 0 <= y_28_29_4_1 <= 1
 0 <= y_28_29_4_2 <= 1
 0 <= y_28_30_4_3 <= 1
 0 <= y_28_30_4_4 <= 1
 0 <= y_28_54_4_3 <= 1
 0 <= y_29_30_1_3 <= 1
 0 <= y_29_30_1_4 <= 1
 0 <= y_29_30_2_3 <= 1
 0 <= y_29_48_4_2 <= 1
 0 <= y_29_50_4_2 <= 1
 0 <= y_30_54_1_2 <= 1
 0 <= y_30_54_1_3 <= 1
 0 <= y_30_54_4_3 <= 1
 0 <= y_31_46_1_3 <= 1
 0 <= y_31_47_1_2 <= 1
 0 <= y_31_55_1_3 <= 1
 0 <= y_31_45_4_2 <= 1
 0 <= y_31_47_4_2 <= 1
 0 <= y_31_47_4_3 <= 1
 0 <= y_32_35_3_2 <= 1
 0 <= y_32_35_4_1 <= 1
 0 <= y_32_35_4_2 <= 1
 0 <= y_32_37_4_2 <= 1
 0 <= y_34_45_1_2 <= 1
 0 <= y_34_45_1_3 <= 1
 0 <= y_34_47_1_3 <= 1
 0 <= y_34_47_1_4 <= 1
 0 <= y_34_56_1_1 <= 1
 0 <= y_34_47_2_3 <= 1
 0 <= y_34_56_2_1 <= 1
 0 <= y_34_56_2_2 <= 1
 0 <= y_34_56_3_1 <= 1
 0 <= y_34_56_3_2 <= 1
 0 <= y_34_56_3_3 <= 1
 0 <= y_34_56_3_4 <= 1
 0 <= y_34_45_4_3 <= 1
 0 <= y_34_56_4_1 <= 1
 0 <= y_34_56_4_4 <= 1
 0 <= y_35_37_1_1 <= 1
 0 <= y_35_37_1_2 <= 1
 0 <= y_35_38_1_1 <= 1
 0 <= y_35_38_1_2 <= 1
 0 <= y_35_37_2_2 <= 1
 0 <= y_35_38_2_2 <= 1
 0 <= y_35_36_3_2 <= 1
 0 <= y_35_37_3_3 <= 1
 0 <= y_35_38_3_2 <= 1
 0 <= y_35_38_3_3 <= 1
 0 <= y_35_36_4_1 <= 1
 0 <= y_35_36_4_2 <= 1
 0 <= y_35_37_4_3 <= 1
 0 <= y_35_37_4_4 <= 1
 0 <= y_35_38_4_1 <= 1
 0 <= y_35_38_4_2 <= 1
 0 <= y_35_38_4_3 <= 1
 0 <= y_35_38_4_4 <= 1
 0 <= y_36_37_1_3 <= 1
 0 <= y_36_37_1_4 <= 1
 0 <= y_36_38_1_3 <= 1
 0 <= y_36_38_1_4 <= 1
 0 <= y_36_37_2_3 <= 1
 0 <= y_36_38_2_3 <= 1
 0 <= y_36_46_3_2 <= 1
 0 <= y_36_46_4_1 <= 1
 0 <= y_36_46_4_2 <= 1
 0 <= y_36_55_4_2 <= 1
 0 <= y_37_38_1_1 <= 1
 0 <= y_37_38_1_2 <= 1
 0 <= y_37_43_1_3 <= 1
 0 <= y_37_38_2_2 <= 1
 0 <= y_37_38_3_2 <= 1
 0 <= y_37_38_3_3 <= 1
 0 <= y_37_38_4_1 <= 1
 0 <= y_37_38_4_2 <= 1
 0 <= y_37_38_4_3 <= 1
 0 <= y_37_38_4_4 <= 1
 0 <= y_38_43_1_3 <= 1
 0 <= y_39_41_1_1 <= 1
 0 <= y_39_41_1_2 <= 1
 0 <= y_39_41_2_2 <= 1
 0 <= y_39_40_3_2 <= 1
 0 <= y_39_41_3_2 <= 1
 0 <= y_39_41_3_3 <= 1
 0 <= y_39_40_4_1 <= 1
 0 <= y_39_40_4_2 <= 1
 0 <= y_39_41_4_1 <= 1
 0 <= y_39_41_4_2 <= 1
 0 <= y_39_41_4_3 <= 1
 0 <= y_39_41_4_4 <= 1
 0 <= y_40_41_1_1 <= 1
 0 <= y_40_41_1_2 <= 1
 0 <= y_40_41_1_3 <= 1
 0 <= y_40_41_1_4 <= 1
 0 <= y_40_41_2_2 <= 1
 0 <= y_40_41_2_3 <= 1
 0 <= y_40_41_3_3 <= 1
 0 <= y_40_43_3_2 <= 1
 0 <= y_40_41_4_3 <= 1
 0 <= y_40_41_4_4 <= 1
 0 <= y_40_43_4_1 <= 1
 0 <= y_40_43_4_2 <= 1
 0 <= y_41_43_3_1 <= 1
 0 <= y_41_43_3_2 <= 1
 0 <= y_41_43_4_1 <= 1
 0 <= y_42_46_2_1 <= 1
 0 <= y_42_46_2_4 <= 1
 0 <= y_42_55_2_1 <= 1
 0 <= y_42_46_3_4 <= 1
 0 <= y_42_47_3_1 <= 1
 0 <= y_42_55_3_4 <= 1
 0 <= y_44_54_1_4 <= 1
 0 <= y_44_54_2_3 <= 1
 0 <= y_44_54_2_4 <= 1
 0 <= y_45_47_1_4 <= 1
 0 <= y_45_47_2_3 <= 1
 0 <= y_45_47_2_4 <= 1
 0 <= y_45_56_3_1 <= 1
 0 <= y_46_55_1_1 <= 1
 0 <= y_46_55_1_2 <= 1
 0 <= y_46_55_2_2 <= 1
 0 <= y_46_55_3_2 <= 1
 0 <= y_46_55_3_3 <= 1
 0 <= y_46_55_4_1 <= 1
 0 <= y_46_55_4_2 <= 1
 0 <= y_46_55_4_3 <= 1
 0 <= y_46_55_4_4 <= 1
 0 <= y_47_55_1_3 <= 1
 0 <= y_47_55_1_4 <= 1
 0 <= y_47_55_2_3 <= 1
 0 <= y_48_50_1_1 <= 1
 0 <= y_48_50_2_1 <= 1
 0 <= y_48_50_2_2 <= 1
 0 <= y_48_50_3_3 <= 1
 0 <= y_48_50_3_4 <= 1
 0 <= y_48_53_3_1 <= 1
 0 <= y_48_58_3_1 <= 1
 0 <= y_48_50_4_4 <= 1
 0 <= y_49_51_1_4 <= 1
 0 <= y_49_51_2_3 <= 1
 0 <= y_49_51_2_4 <= 1
 0 <= y_50_53_3_1 <= 1
 0 <= y_50_58_3_1 <= 1
 0 <= y_51_52_1_4 <= 1
 0 <= y_51_52_2_3 <= 1
 0 <= y_51_52_2_4 <= 1
 0 <= y_52_53_1_4 <= 1
 0 <= y_52_58_1_4 <= 1
 0 <= y_52_53_2_3 <= 1
 0 <= y_52_53_2_4 <= 1
 0 <= y_52_58_2_3 <= 1
 0 <= y_52_58_2_4 <= 1
 0 <= y_53_58_1_1 <= 1
 0 <= y_53_58_2_1 <= 1
 0 <= y_53_58_2_2 <= 1
 0 <= y_53_58_3_3 <= 1
 0 <= y_53_58_3_4 <= 1
 0 <= y_53_58_4_4 <= 1
Binaries
 x_1_1
 x_1_2
 x_1_3
 x_1_4
 x_2_1
 x_2_2
 x_2_3
 x_2_4
 x_3_1
 x_3_2
 x_3_3
 x_3_4
 x_4_1
 x_4_2
 x_4_3
 x_4_4
 x_5_1
 x_5_2
 x_5_3
 x_5_4
 x_6_1
 x_6_2
 x_6_3
 x_6_4
 x_7_1
 x_7_2
 x_7_3
 x_7_4
 x_8_1
 x_8_2
 x_8_3
 x_8_4
 x_9_1
 x_9_2
 x_9_3
 x_9_4
 x_10_1
 x_10_2
 x_10_3
 x_10_4
 x_11_1
 x_11_2
 x_11_3
 x_11_4
 x_12_1
 x_12_2
 x_12_3
 x_12_4
 x_13_1
 x_13_2
 x_13_3
 x_13_4
 x_14_1
 x_14_2
 x_14_3
 x_14_4
 x_15_1
 x_15_2
 x_15_3
 x_15_4
 x_16_1
 x_16_2
 x_16_3
 x_16_4
 x_17_1
 x_17_2
 x_17_3
 x_17_4
 x_18_1
 x_18_2
 x_18_3
 x_18_4
 x_19_1
 x_19_2
 x_19_3
 x_19_4
 x_20_1
 x_20_2
 x_20_3
 x_20_4
 x_21_1
 x_21_2
 x_21_3
 x_21_4
 x_22_1
 x_22_2
 x_22_3
 x_22_4
 x_23_1
 x_23_2
 x_23_3
 x_23_4
 x_24_1
 x_24_2
 x_24_3
 x_24_4
 x_25_1
 x_25_2
 x_25_3
 x_25_4
 x_26_1
 x_26_2
 x_26_3
 x_26_4
 x_27_1
 x_27_2
 x_27_3
 x_27_4
 x_28_1
 x_28_2
 x_28_3
 x_28_4
 x_29_1
 x_29_2
 x_29_3
 x_29_4
 x_30_1
 x_30_2
 x_30_3
 x_30_4
 x_31_1
 x_31_2
 x_31_3
 x_31_4
 x_32_1
 x_32_2
 x_32_3
 x_32_4
 x_33_1
 x_33_2
 x_33_3
 x_33_4
 x_34_1
 x_34_2
 x_34_3
 x_34_4
 x_35_1
 x_35_2
 x_35_3
 x_35_4
 x_36_1
 x_36_2
 x_36_3
 x_36_4
 x_37_1
 x_37_2
 x_37_3
 x_37_4
 x_38_1
 x_38_2
 x_38_3
 x_38_4
 x_39_1
 x_39_2
 x_39_3
 x_39_4
 x_40_1
 x_40_2
 x_40_3
 x_40_4
 x_41_1
 x_41_2
 x_41_3
 x_41_4
 x_42_1
 x_42_2
 x_42_3
 x_42_4
 x_43_1
 x_43_2
 x_43_3
 x_43_4
 x_44_1
 x_44_2
 x_44_3
 x_44_4
 x_45_1
 x_45_2
 x_45_3
 x_45_4
 x_46_1
 x_46_2
 x_46_3
 x_46_4
 x_47_1
 x_47_2
 x_47_3
 x_47_4
 x_48_1
 x_48_2
 x_48_3
 x_48_4
 x_49_1
 x_49_2
 x_49_3
 x_49_4
 x_50_1
 x_50_2
 x_50_3
 x_50_4
 x_51_1
 x_51_2
 x_51_3
 x_51_4
 x_52_1
 x_52_2
 x_52_3
 x_52_4
 x_53_1
 x_53_2
 x_53_3
 x_53_4
 x_54_1
 x_54_2
 x_54_3
 x_54_4
 x_55_1
 x_55_2
 x_55_3
 x_55_4
 x_56_1
 x_56_2
 x_56_3
 x_56_4
 x_57_1
 x_57_2
 x_57_3
 x_57_4
 x_58_1
 x_58_2
 x_58_3
 x_58_4
End
